proyfinal/src/viki/013/andrea/andrea-localstore/experimentInOfficeAgust.take6/worker_3/59713e1d-9f4e-48a0-86a3-2c90b8f1bac0.als.cnf.out
Reading from standard input... Use '--help' for help.
============================[ Problem Statistics ]=============================
|                                                                             |
|  Number of variables:         87638                                         |
|  Number of clauses:          161767                                         |
|  Parse time:                   0.04 s                                       |
|                                                                             |
============================[ Search Statistics ]==============================
| Conflicts |          ORIGINAL         |          LEARNT          | Progress |
|           |    Vars  Clauses Literals |    Limit  Clauses Lit/Cl |          |
===============================================================================
|       100 |   65073   115056   286803 |    42187      100     11 | 25.748 % |
|       250 |   65072   115012   286713 |    46405      249     39 | 25.749 % |
|       475 |   65072   115012   286713 |    51046      474     46 | 25.749 % |
|       812 |   60191    99112   247385 |    56151      804     52 | 31.319 % |
|      1318 |   60191    99104   247362 |    61766     1309     57 | 31.319 % |
|      2077 |   60191    99104   247362 |    67942     2068     56 | 31.319 % |
|      3216 |   60106    98743   246484 |    74737     3204     56 | 31.416 % |
|      4924 |   60101    98722   246428 |    82210     4836     64 | 31.421 % |
|      7486 |   59803    97581   243786 |    90432     7351     69 | 31.761 % |
|     11330 |   59456    96322   240865 |    99475    11144     74 | 32.157 % |
|     17096 |   59144    95761   239591 |   109422    16534     86 | 32.513 % |
===============================================================================
restarts              : 74
conflicts             : 20874          (7633 /sec)
decisions             : 87331          (0.00 % random) (31933 /sec)
propagations          : 30089706       (11002501 /sec)
conflict literals     : 1772309        (37.48 % deleted)
Memory used           : 44.79 MB
CPU time              : 2.73481 s

INDETERMINATE
